\Problem name: 

Minimize
OBJROW: 136 var(0) + 236 var(1) + 272 var(3) + 50 var(4) + 136 var(5) + 544 var(6) + 50 var(8) + 2236 var(9) + 50 var(10) + 227 var(11)
 + 254 var(13) + 1802 var(14) + 970 var(15) + 50 var(17) + 1368 var(18) + 218 var(19) + 50 var(20) + 136 var(22) + 86 var(23) + 1440 var(24)
 + 2236 var(25) + 50 var(26) + 236 var(28) + 372 var(29) + 68 var(31) + 372 var(32) + 236 var(33) + 50 var(34) + 2670 var(36) + 290 var(37)
 + 2670 var(38) + 50 var(39) + 86 var(40) + 136 var(41) + 50 var(42) + 236 var(43) + 50 var(45) + 113 var(46) + 263 var(47) + 163 var(49)
Subject To
constr(0):  var(0) + var(1) + var(2) + var(3) + var(4) = 1
constr(1):  var(5) + var(6) + var(7) + var(8) + var(9) = 1
constr(2):  var(10) + var(11) + var(12) + var(13) + var(14) = 1
constr(3):  var(15) + var(16) + var(17) + var(18) + var(19) = 1
constr(4):  var(20) + var(21) + var(22) + var(23) + var(24) = 1
constr(5):  var(25) + var(26) + var(27) + var(28) + var(29) = 1
constr(6):  var(30) + var(31) + var(32) + var(33) + var(34) = 1
constr(7):  var(35) + var(36) + var(37) + var(38) + var(39) = 1
constr(8):  var(40) + var(41) + var(42) + var(43) + var(44) = 1
constr(9):  var(45) + var(46) + var(47) + var(48) + var(49) = 1
constr(10):  4 var(0) + 4 var(5) + 3 var(10) + 2 var(15) + 4 var(20) + 4 var(25) + 2 var(30) + 5 var(35) + 4 var(40) + 7 var(45)
 >= 4
constr(11):  4 var(0) + 4 var(5) + 3 var(10) + 2 var(15) + 4 var(20) + 4 var(25) + 2 var(30) + 5 var(35) + 4 var(40) + 7 var(45)
 <= 12
constr(12):  4 var(1) + 4 var(6) + 3 var(11) + 2 var(16) + 4 var(21) + 4 var(26) + 2 var(31) + 5 var(36) + 4 var(41) + 7 var(46)
 >= 4
constr(13):  4 var(1) + 4 var(6) + 3 var(11) + 2 var(16) + 4 var(21) + 4 var(26) + 2 var(31) + 5 var(36) + 4 var(41) + 7 var(46)
 <= 12
constr(14):  4 var(2) + 4 var(7) + 3 var(12) + 2 var(17) + 4 var(22) + 4 var(27) + 2 var(32) + 5 var(37) + 4 var(42) + 7 var(47)
 >= 4
constr(15):  4 var(2) + 4 var(7) + 3 var(12) + 2 var(17) + 4 var(22) + 4 var(27) + 2 var(32) + 5 var(37) + 4 var(42) + 7 var(47)
 <= 12
constr(16):  4 var(3) + 4 var(8) + 3 var(13) + 2 var(18) + 4 var(23) + 4 var(28) + 2 var(33) + 5 var(38) + 4 var(43) + 7 var(48)
 >= 4
constr(17):  4 var(3) + 4 var(8) + 3 var(13) + 2 var(18) + 4 var(23) + 4 var(28) + 2 var(33) + 5 var(38) + 4 var(43) + 7 var(48)
 <= 12
constr(18):  4 var(4) + 4 var(9) + 3 var(14) + 2 var(19) + 4 var(24) + 4 var(29) + 2 var(34) + 5 var(39) + 4 var(44) + 7 var(49)
 >= 4
constr(19):  4 var(4) + 4 var(9) + 3 var(14) + 2 var(19) + 4 var(24) + 4 var(29) + 2 var(34) + 5 var(39) + 4 var(44) + 7 var(49)
 <= 12
constr(20):  4 var(0) -4 var(1) + 4 var(5) -4 var(6) + 3 var(10) -3 var(11) + 2 var(15) -2 var(16) + 4 var(20) -4 var(21)
 + 4 var(25) -4 var(26) + 2 var(30) -2 var(31) + 5 var(35) -5 var(36) + 4 var(40) -4 var(41) + 7 var(45) -7 var(46)
 >= -100
constr(21):  4 var(0) -4 var(1) + 4 var(5) -4 var(6) + 3 var(10) -3 var(11) + 2 var(15) -2 var(16) + 4 var(20) -4 var(21)
 + 4 var(25) -4 var(26) + 2 var(30) -2 var(31) + 5 var(35) -5 var(36) + 4 var(40) -4 var(41) + 7 var(45) -7 var(46)
 <= 100
constr(22):  4 var(1) -4 var(2) + 4 var(6) -4 var(7) + 3 var(11) -3 var(12) + 2 var(16) -2 var(17) + 4 var(21) -4 var(22)
 + 4 var(26) -4 var(27) + 2 var(31) -2 var(32) + 5 var(36) -5 var(37) + 4 var(41) -4 var(42) + 7 var(46) -7 var(47)
 >= -100
constr(23):  4 var(1) -4 var(2) + 4 var(6) -4 var(7) + 3 var(11) -3 var(12) + 2 var(16) -2 var(17) + 4 var(21) -4 var(22)
 + 4 var(26) -4 var(27) + 2 var(31) -2 var(32) + 5 var(36) -5 var(37) + 4 var(41) -4 var(42) + 7 var(46) -7 var(47)
 <= 100
constr(24):  4 var(2) -4 var(3) + 4 var(7) -4 var(8) + 3 var(12) -3 var(13) + 2 var(17) -2 var(18) + 4 var(22) -4 var(23)
 + 4 var(27) -4 var(28) + 2 var(32) -2 var(33) + 5 var(37) -5 var(38) + 4 var(42) -4 var(43) + 7 var(47) -7 var(48)
 >= -100
constr(25):  4 var(2) -4 var(3) + 4 var(7) -4 var(8) + 3 var(12) -3 var(13) + 2 var(17) -2 var(18) + 4 var(22) -4 var(23)
 + 4 var(27) -4 var(28) + 2 var(32) -2 var(33) + 5 var(37) -5 var(38) + 4 var(42) -4 var(43) + 7 var(47) -7 var(48)
 <= 100
constr(26):  4 var(3) -4 var(4) + 4 var(8) -4 var(9) + 3 var(13) -3 var(14) + 2 var(18) -2 var(19) + 4 var(23) -4 var(24)
 + 4 var(28) -4 var(29) + 2 var(33) -2 var(34) + 5 var(38) -5 var(39) + 4 var(43) -4 var(44) + 7 var(48) -7 var(49)
 >= -100
constr(27):  4 var(3) -4 var(4) + 4 var(8) -4 var(9) + 3 var(13) -3 var(14) + 2 var(18) -2 var(19) + 4 var(23) -4 var(24)
 + 4 var(28) -4 var(29) + 2 var(33) -2 var(34) + 5 var(38) -5 var(39) + 4 var(43) -4 var(44) + 7 var(48) -7 var(49)
 <= 100
Bounds
 0 <= var(0) <= 1
 0 <= var(1) <= 1
 0 <= var(2) <= 1
 0 <= var(3) <= 1
 0 <= var(4) <= 1
 0 <= var(5) <= 1
 0 <= var(6) <= 1
 0 <= var(7) <= 1
 0 <= var(8) <= 1
 0 <= var(9) <= 1
 0 <= var(10) <= 1
 0 <= var(11) <= 1
 0 <= var(12) <= 1
 0 <= var(13) <= 1
 0 <= var(14) <= 1
 0 <= var(15) <= 1
 0 <= var(16) <= 1
 0 <= var(17) <= 1
 0 <= var(18) <= 1
 0 <= var(19) <= 1
 0 <= var(20) <= 1
 0 <= var(21) <= 1
 0 <= var(22) <= 1
 0 <= var(23) <= 1
 0 <= var(24) <= 1
 0 <= var(25) <= 1
 0 <= var(26) <= 1
 0 <= var(27) <= 1
 0 <= var(28) <= 1
 0 <= var(29) <= 1
 0 <= var(30) <= 1
 0 <= var(31) <= 1
 0 <= var(32) <= 1
 0 <= var(33) <= 1
 0 <= var(34) <= 1
 0 <= var(35) <= 1
 0 <= var(36) <= 1
 0 <= var(37) <= 1
 0 <= var(38) <= 1
 0 <= var(39) <= 1
 0 <= var(40) <= 1
 0 <= var(41) <= 1
 0 <= var(42) <= 1
 0 <= var(43) <= 1
 0 <= var(44) <= 1
 0 <= var(45) <= 1
 0 <= var(46) <= 1
 0 <= var(47) <= 1
 0 <= var(48) <= 1
 0 <= var(49) <= 1
Integers
var(0) var(1) var(2) var(3) var(4) var(5) var(6) var(7) var(8) var(9) 
var(10) var(11) var(12) var(13) var(14) var(15) var(16) var(17) var(18) var(19) 
var(20) var(21) var(22) var(23) var(24) var(25) var(26) var(27) var(28) var(29) 
var(30) var(31) var(32) var(33) var(34) var(35) var(36) var(37) var(38) var(39) 
var(40) var(41) var(42) var(43) var(44) var(45) var(46) var(47) var(48) var(49) 
End
